p cnf 21 47
a 3 4 0
e 1 2 5 6 7 8 9 10 11 12 13 14 15 16 17 18 19 20 21 0
3 1 0
3 -2 0
-1 2 -3 0
5 -3 0
5 -4 0
3 4 -5 0
-6 1 0
-6 2 0
-1 -2 6 0
7 -5 0
7 -6 0
5 6 -7 0
-9 8 0
-9 2 0
-8 -2 9 0
-9 -10 -11 0
9 10 -11 0
-9 10 11 0
9 -10 11 0
-12 7 0
-12 -11 0
-7 11 12 0
-14 9 0
-14 -13 0
-9 13 14 0
-15 12 0
-15 14 0
-12 -14 15 0
17 -3 0
17 -16 0
3 16 -17 0
19 -9 0
19 18 0
9 -18 -19 0
-17 19 -20 0
17 -19 -20 0
-17 -19 20 0
17 19 20 0
-15 20 -21 0
15 -20 -21 0
-15 -20 21 0
15 20 21 0
-9 -13 -12 -19 0
-6 17 18 20 21 0
-7 5 20 15 0
1 20 -7 -4 0
21 0
